problems/csplib-prob015/SchursLemma-models/noch/O2/lingeling/model_1_3-6-16-solution000001.solution
language Essence 1.3

letting boxes be partition({1}, {2, 3, 4, 11}, {5, 16}, {6, 9, 14}, {7, 8, 10, 12, 13}, {15})
